<?xml version = "1.0" standalone="yes"?>
<!-- This file has been generated by DOcplex version 2.23.222  -->
<CPLEXSolution version="1.0">
 <header
   problemName="CVRP"
   objectiveValue="10000.5"
  />
 <variables>
  <variable name="x_0_1" index="0" value="1.00000"/>
  <variable name="x_0_2" index="1" value="1.00000"/>
  <variable name="x_0_4" index="3" value="1.00000"/>
  <variable name="x_0_8" index="7" value="1.00000"/>
  <variable name="x_0_9" index="8" value="1.00000"/>
  <variable name="x_0_10" index="9" value="1.00000"/>
  <variable name="x_0_17" index="16" value="1.00000"/>
  <variable name="x_0_18" index="17" value="1.00000"/>
  <variable name="x_1_0" index="19" value="1.00000"/>
  <variable name="x_2_14" index="51" value="1.00000"/>
  <variable name="x_3_11" index="67" value="1.00000"/>
  <variable name="x_4_0" index="76" value="1.00000"/>
  <variable name="x_5_0" index="95" value="1.00000"/>
  <variable name="x_6_5" index="119" value="1.00000"/>
  <variable name="x_7_13" index="145" value="1.00000"/>
  <variable name="x_8_0" index="152" value="1.00000"/>
  <variable name="x_9_19" index="189" value="1.00000"/>
  <variable name="x_10_7" index="197" value="1.00000"/>
  <variable name="x_11_15" index="223" value="1.00000"/>
  <variable name="x_12_16" index="243" value="1.00000"/>
  <variable name="x_13_0" index="247" value="1.00000"/>
  <variable name="x_14_12" index="278" value="1.00000"/>
  <variable name="x_15_6" index="291" value="1.00000"/>
  <variable name="x_16_0" index="304" value="1.00000"/>
  <variable name="x_17_0" index="323" value="1.00000"/>
  <variable name="x_18_3" index="345" value="1.00000"/>
  <variable name="x_19_0" index="361" value="1.00000"/>
  <variable name="u_1" index="380" value="24.00000"/>
  <variable name="u_2" index="381" value="3.00000"/>
  <variable name="u_3" index="382" value="21.00000"/>
  <variable name="u_4" index="383" value="58.00000"/>
  <variable name="u_5" index="384" value="58.00000"/>
  <variable name="u_6" index="385" value="50.00000"/>
  <variable name="u_7" index="386" value="34.00000"/>
  <variable name="u_8" index="387" value="42.00000"/>
  <variable name="u_9" index="388" value="51.00000"/>
  <variable name="u_10" index="389" value="20.00000"/>
  <variable name="u_11" index="390" value="29.00000"/>
  <variable name="u_12" index="391" value="38.00000"/>
  <variable name="u_13" index="392" value="56.00000"/>
  <variable name="u_14" index="393" value="26.00000"/>
  <variable name="u_15" index="394" value="35.00000"/>
  <variable name="u_16" index="395" value="58.00000"/>
  <variable name="u_17" index="396" value="50.00000"/>
  <variable name="u_18" index="397" value="2.00000"/>
  <variable name="u_19" index="398" value="57.00000"/>
 </variables>
</CPLEXSolution>
